c Créé aléatoirement par notre superbe programme de génération de graphe
c Il contient 18 sommets et 32 arêtes distinctes.
c Passez le bonjour à MM Blot et Hirschkoff
p edge 18 32
e 1 11
e 1 10
e 1 2
e 2 14
e 2 4
e 2 10
e 2 3
e 3 12
e 3 16
e 3 7
e 3 9
e 3 18
e 4 14
e 4 18
e 4 7
e 4 16
e 4 6
e 4 5
e 5 16
e 6 16
e 6 7
e 7 16
e 7 17
e 7 15
e 8 11
e 9 10
e 9 11
e 10 17
e 10 11
e 13 16
e 14 17
e 15 18
